CPXPARAM_MIP_Strategy_NodeSelect#P39#1#CPXPARAM_MIP_Strategy_VariableSelect#P46#0#3.778841#0.494530
CPXPARAM_MIP_Strategy_NodeSelect#P39#1#CPXPARAM_MIP_Strategy_VariableSelect#P46#1#3.309930#0.433164
CPXPARAM_MIP_Strategy_NodeSelect#P39#1#CPXPARAM_MIP_Strategy_VariableSelect#P46#2#4.830606#0.632173
CPXPARAM_MIP_Strategy_NodeSelect#P39#1#CPXPARAM_MIP_Strategy_VariableSelect#P46#3#1.336563#0.174914
CPXPARAM_MIP_Strategy_NodeSelect#P39#2#CPXPARAM_MIP_Strategy_VariableSelect#P46#0#7.641277#1.000000
CPXPARAM_MIP_Strategy_NodeSelect#P39#3#CPXPARAM_MIP_Strategy_VariableSelect#P46#0#1.336561#0.174913
